============================[ Problem Statistics ]=============================|                                                                             ||  Number of variables:          4242                                         ||  Number of clauses:           10049                                         ||  Parse time:                   0.44 s                                       ||                                                                             |============================[ Search Statistics ]==============================| Conflicts |          ORIGINAL         |          LEARNT          | Progress ||           |    Vars  Clauses Literals |    Limit  Clauses Lit/Cl |          |===============================================================================|       100 |    1591     6254   697515 |     2293      100     53 | 62.501 % |===============================================================================restarts              : 3conflicts             : 249            (374 /sec)decisions             : 512            (0.00 % random) (770 /sec)propagations          : 11747          (17665 /sec)conflict literals     : 18777          (94.91 % deleted)CPU time              : 0.665 sSATISFIABLE